;symbolic execution tree
(push)
(assert (le x3 weka.core.FastVector))
(check-sat)
(push)
(assert (le x5 weka.core.Instance))
(check-sat)
(pop)
(push)
(assert (not (le x5 weka.core.Instance)))
(check-sat)
(push)
(assert (le x1 java.util.Vector))
(check-sat)
(push)
(assert (le x6 java.lang.String))
(check-sat)
(pop)
(push)
(assert (not (le x6 java.lang.String)))
(check-sat)
(pop)
(pop)
(push)
(assert (not (le x1 java.util.Vector)))
(check-sat)
(push)
(assert (le x4 java.lang.Boolean))
(check-sat)
(pop)
(push)
(assert (not (le x4 java.lang.Boolean)))
(check-sat)
(pop)
(pop)
(pop)
(push)
(assert (le x0 java.lang.ClassLoader))
(check-sat)
(pop)
(push)
(assert (not (le x0 java.lang.ClassLoader)))
(check-sat)
(pop)
(push)
(assert (le x0 weka.core.AttributeLocator))
(check-sat)
(pop)
(push)
(assert (not (le x0 weka.core.AttributeLocator)))
(check-sat)
(push)
(assert (le x5 weka.core.AttributeLocator))
(check-sat)
(pop)
(push)
(assert (not (le x5 weka.core.AttributeLocator)))
(check-sat)
(push)
(assert (le x1 weka.core.Instances))
(check-sat)
(pop)
(push)
(assert (not (le x1 weka.core.Instances)))
(check-sat)
(pop)
(push)
(assert (le x5 weka.core.AttributeLocator))
(check-sat)
(pop)
(push)
(assert (not (le x5 weka.core.AttributeLocator)))
(check-sat)
(pop)
(push)
(assert (le x2 java.lang.String))
(check-sat)
(pop)
(push)
(assert (not (le x2 java.lang.String)))
(check-sat)
(pop)
(pop)
(pop)
(push)
(assert (le x6 weka.core.Queue_currencysign_QueueNode))
(check-sat)
(push)
(assert (le x6 weka.core.Queue_currencysign_QueueNode))
(check-sat)
(push)
(assert (le x2 java.lang.Double))
(check-sat)
(pop)
(push)
(assert (not (le x2 java.lang.Double)))
(check-sat)
(pop)
(push)
(assert (le x4 weka.core.Instance))
(check-sat)
(pop)
(push)
(assert (not (le x4 weka.core.Instance)))
(check-sat)
(pop)
(push)
(assert (le x3 weka.core.FastVector))
(check-sat)
(pop)
(push)
(assert (not (le x3 weka.core.FastVector)))
(check-sat)
(pop)
(push)
(assert (le x7 java.lang.String))
(check-sat)
(push)
(assert (le x0 weka.core.Instances))
(check-sat)
(pop)
(push)
(assert (not (le x0 weka.core.Instances)))
(check-sat)
(pop)
(push)
(assert (le x4 java.lang.Boolean))
(check-sat)
(pop)
(push)
(assert (not (le x4 java.lang.Boolean)))
(check-sat)
(pop)
(push)
(assert (le x2 java.lang.String))
(check-sat)
(pop)
(push)
(assert (not (le x2 java.lang.String)))
(check-sat)
(pop)
(push)
(assert (le x3 weka.core.FastVector))
(check-sat)
(pop)
(push)
(assert (not (le x3 weka.core.FastVector)))
(check-sat)
(pop)
(pop)
(push)
(assert (not (le x7 java.lang.String)))
(check-sat)
(pop)
(pop)
(push)
(assert (not (le x6 weka.core.Queue_currencysign_QueueNode)))
(check-sat)
(pop)
(push)
(assert (le x6 weka.core.Queue_currencysign_QueueNode))
(check-sat)
(push)
(assert (le x7 weka.filters.unsupervised.attribute.Remove))
(check-sat)
(pop)
(push)
(assert (not (le x7 weka.filters.unsupervised.attribute.Remove)))
(check-sat)
(pop)
(pop)
(push)
(assert (not (le x6 weka.core.Queue_currencysign_QueueNode)))
(check-sat)
(pop)
(push)
(assert (le x2 weka.core.FastVector))
(check-sat)
(pop)
(push)
(assert (not (le x2 weka.core.FastVector)))
(check-sat)
(push)
(assert (le x0 java.lang.Double))
(check-sat)
(push)
(assert (le x5 weka.core.Capabilities))
(check-sat)
(pop)
(push)
(assert (not (le x5 weka.core.Capabilities)))
(check-sat)
(pop)
(pop)
(push)
(assert (not (le x0 java.lang.Double)))
(check-sat)
(push)
(assert (le x2 weka.core.FastVector))
(check-sat)
(pop)
(push)
(assert (not (le x2 weka.core.FastVector)))
(check-sat)
(pop)
(push)
(assert (le x2 weka.core.FastVector))
(check-sat)
(pop)
(push)
(assert (not (le x2 weka.core.FastVector)))
(check-sat)
(pop)
(pop)
(push)
(assert (le x3 weka.core.FastVector))
(check-sat)
(pop)
(push)
(assert (not (le x3 weka.core.FastVector)))
(check-sat)
(pop)
(pop)
(pop)
(push)
(assert (not (le x6 weka.core.Queue_currencysign_QueueNode)))
(check-sat)
(push)
(assert (le x2 java.lang.StringBuilder))
(check-sat)
(push)
(assert (le x6 weka.core.Queue_currencysign_QueueNode))
(check-sat)
(pop)
(push)
(assert (not (le x6 weka.core.Queue_currencysign_QueueNode)))
(check-sat)
(pop)
(push)
(assert (le x4 weka.core.Queue_currencysign_QueueNode))
(check-sat)
(pop)
(push)
(assert (not (le x4 weka.core.Queue_currencysign_QueueNode)))
(check-sat)
(pop)
(pop)
(push)
(assert (not (le x2 java.lang.StringBuilder)))
(check-sat)
(pop)
(pop)
(push)
(assert (le x2 weka.core.Instance))
(check-sat)
(push)
(assert (le x0 java.lang.String))
(check-sat)
(pop)
(push)
(assert (not (le x0 java.lang.String)))
(check-sat)
(pop)
(pop)
(push)
(assert (not (le x2 weka.core.Instance)))
(check-sat)
(pop)
(pop)
(push)
(assert (not (le x3 weka.core.FastVector)))
(check-sat)
(push)
(assert (le x7 java.lang.String))
(check-sat)
(pop)
(push)
(assert (not (le x7 java.lang.String)))
(check-sat)
(push)
(assert (le x1 weka.core.Instances))
(check-sat)
(pop)
(push)
(assert (not (le x1 weka.core.Instances)))
(check-sat)
(push)
(assert (le x7 java.lang.String))
(check-sat)
(pop)
(push)
(assert (not (le x7 java.lang.String)))
(check-sat)
(pop)
(push)
(assert (le x4 weka.core.Instance))
(check-sat)
(pop)
(push)
(assert (not (le x4 weka.core.Instance)))
(check-sat)
(pop)
(pop)
(push)
(assert (le x0 java.lang.String))
(check-sat)
(pop)
(push)
(assert (not (le x0 java.lang.String)))
(check-sat)
(pop)
(push)
(assert (le x6 java.io.File))
(check-sat)
(pop)
(push)
(assert (not (le x6 java.io.File)))
(check-sat)
(pop)
(push)
(assert (le x6 java.lang.Boolean))
(check-sat)
(push)
(assert (le x5 weka.core.Instances))
(check-sat)
(pop)
(push)
(assert (not (le x5 weka.core.Instances)))
(check-sat)
(pop)
(push)
(assert (le x6 java.lang.Boolean))
(check-sat)
(pop)
(push)
(assert (not (le x6 java.lang.Boolean)))
(check-sat)
(pop)
(push)
(assert (le x6 java.lang.Boolean))
(check-sat)
(push)
(assert (le x3 weka.core.FastVector))
(check-sat)
(pop)
(push)
(assert (not (le x3 weka.core.FastVector)))
(check-sat)
(pop)
(pop)
(push)
(assert (not (le x6 java.lang.Boolean)))
(check-sat)
(pop)
(push)
(assert (le x7 java.lang.String))
(check-sat)
(pop)
(push)
(assert (not (le x7 java.lang.String)))
(check-sat)
(pop)
(pop)
(push)
(assert (not (le x6 java.lang.Boolean)))
(check-sat)
(pop)
(pop)
(push)
(assert (le x4 weka.core.Queue_currencysign_QueueNode))
(check-sat)
(push)
(assert (le x2 weka.core.Instance))
(check-sat)
(pop)
(push)
(assert (not (le x2 weka.core.Instance)))
(check-sat)
(push)
(assert (le x1 weka.core.Queue_currencysign_QueueNode))
(check-sat)
(pop)
(push)
(assert (not (le x1 weka.core.Queue_currencysign_QueueNode)))
(check-sat)
(pop)
(push)
(assert (le x2 weka.core.Instance))
(check-sat)
(pop)
(push)
(assert (not (le x2 weka.core.Instance)))
(check-sat)
(pop)
(pop)
(push)
(assert (le x1 weka.core.Instances))
(check-sat)
(pop)
(push)
(assert (not (le x1 weka.core.Instances)))
(check-sat)
(pop)
(push)
(assert (le x6 weka.core.AttributeLocator))
(check-sat)
(pop)
(push)
(assert (not (le x6 weka.core.AttributeLocator)))
(check-sat)
(push)
(assert (le x7 weka.core.Instance))
(check-sat)
(push)
(assert (le x4 weka.core.Queue_currencysign_QueueNode))
(check-sat)
(pop)
(push)
(assert (not (le x4 weka.core.Queue_currencysign_QueueNode)))
(check-sat)
(pop)
(pop)
(push)
(assert (not (le x7 weka.core.Instance)))
(check-sat)
(push)
(assert (le x1 weka.core.Instances))
(check-sat)
(pop)
(push)
(assert (not (le x1 weka.core.Instances)))
(check-sat)
(pop)
(pop)
(pop)
(pop)
(push)
(assert (not (le x4 weka.core.Queue_currencysign_QueueNode)))
(check-sat)
(pop)
(push)
(assert (le x2 weka.core.Instance))
(check-sat)
(push)
(assert (le x3 weka.core.FastVector))
(check-sat)
(pop)
(push)
(assert (not (le x3 weka.core.FastVector)))
(check-sat)
(pop)
(push)
(assert (le x3 weka.core.FastVector))
(check-sat)
(pop)
(push)
(assert (not (le x3 weka.core.FastVector)))
(check-sat)
(pop)
(pop)
(push)
(assert (not (le x2 weka.core.Instance)))
(check-sat)
(push)
(assert (le x1 java.util.Vector))
(check-sat)
(pop)
(push)
(assert (not (le x1 java.util.Vector)))
(check-sat)
(pop)
(push)
(assert (le x2 weka.core.Instance))
(check-sat)
(pop)
(push)
(assert (not (le x2 weka.core.Instance)))
(check-sat)
(pop)
(push)
(assert (le x1 java.lang.String))
(check-sat)
(pop)
(push)
(assert (not (le x1 java.lang.String)))
(check-sat)
(pop)
(push)
(assert (le x4 java.lang.String))
(check-sat)
(pop)
(push)
(assert (not (le x4 java.lang.String)))
(check-sat)
(pop)
(pop)
(push)
(assert (le x6 weka.core.FastVector))
(check-sat)
(push)
(assert (le x5 java.lang.StringBuffer))
(check-sat)
(pop)
(push)
(assert (not (le x5 java.lang.StringBuffer)))
(check-sat)
(pop)
(pop)
(push)
(assert (not (le x6 weka.core.FastVector)))
(check-sat)
(pop)
(push)
(assert (le x1 java.lang.String))
(check-sat)
(push)
(assert (le x3 weka.core.FastVector))
(check-sat)
(pop)
(push)
(assert (not (le x3 weka.core.FastVector)))
(check-sat)
(push)
(assert (le x4 weka.core.Instance))
(check-sat)
(pop)
(push)
(assert (not (le x4 weka.core.Instance)))
(check-sat)
(pop)
(push)
(assert (le x4 java.lang.String))
(check-sat)
(push)
(assert (le x7 weka.core.AttributeLocator))
(check-sat)
(pop)
(push)
(assert (not (le x7 weka.core.AttributeLocator)))
(check-sat)
(pop)
(pop)
(push)
(assert (not (le x4 java.lang.String)))
(check-sat)
(pop)
(pop)
(push)
(assert (le x6 weka.core.Instances))
(check-sat)
(push)
(assert (le x6 weka.core.Instances))
(check-sat)
(pop)
(push)
(assert (not (le x6 weka.core.Instances)))
(check-sat)
(pop)
(pop)
(push)
(assert (not (le x6 weka.core.Instances)))
(check-sat)
(push)
(assert (le x5 weka.core.Range))
(check-sat)
(pop)
(push)
(assert (not (le x5 weka.core.Range)))
(check-sat)
(pop)
(push)
(assert (le x6 weka.core.Instances))
(check-sat)
(pop)
(push)
(assert (not (le x6 weka.core.Instances)))
(check-sat)
(pop)
(pop)
(pop)
(push)
(assert (not (le x1 java.lang.String)))
(check-sat)
(push)
(assert (le x5 java.lang.StringBuilder))
(check-sat)
(push)
(assert (le x0 java.lang.Boolean))
(check-sat)
(pop)
(push)
(assert (not (le x0 java.lang.Boolean)))
(check-sat)
(pop)
(push)
(assert (le x6 weka.core.Instances))
(check-sat)
(pop)
(push)
(assert (not (le x6 weka.core.Instances)))
(check-sat)
(push)
(assert (le x5 java.lang.StringBuilder))
(check-sat)
(pop)
(push)
(assert (not (le x5 java.lang.StringBuilder)))
(check-sat)
(pop)
(pop)
(pop)
(push)
(assert (not (le x5 java.lang.StringBuilder)))
(check-sat)
(pop)
(push)
(assert (le x1 java.lang.String))
(check-sat)
(pop)
(push)
(assert (not (le x1 java.lang.String)))
(check-sat)
(push)
(assert (le x2 java.lang.String))
(check-sat)
(pop)
(push)
(assert (not (le x2 java.lang.String)))
(check-sat)
(pop)
(push)
(assert (le x5 java.lang.String))
(check-sat)
(pop)
(push)
(assert (not (le x5 java.lang.String)))
(check-sat)
(pop)
(push)
(assert (le x5 java.lang.String))
(check-sat)
(pop)
(push)
(assert (not (le x5 java.lang.String)))
(check-sat)
(pop)
(push)
(assert (le x0 java.util.Vector))
(check-sat)
(pop)
(push)
(assert (not (le x0 java.util.Vector)))
(check-sat)
(pop)
(pop)
(pop)
(push)
(assert (le x4 weka.core.Instance))
(check-sat)
(push)
(assert (le x0 java.lang.Boolean))
(check-sat)
(push)
(assert (le x5 weka.core.Instance))
(check-sat)
(pop)
(push)
(assert (not (le x5 weka.core.Instance)))
(check-sat)
(push)
(assert (le x7 weka.core.Instance))
(check-sat)
(pop)
(push)
(assert (not (le x7 weka.core.Instance)))
(check-sat)
(pop)
(pop)
(push)
(assert (le x3 weka.core.FastVector))
(check-sat)
(pop)
(push)
(assert (not (le x3 weka.core.FastVector)))
(check-sat)
(pop)
(push)
(assert (le x2 java.lang.StringBuilder))
(check-sat)
(push)
(assert (le x0 java.lang.Boolean))
(check-sat)
(pop)
(push)
(assert (not (le x0 java.lang.Boolean)))
(check-sat)
(pop)
(pop)
(push)
(assert (not (le x2 java.lang.StringBuilder)))
(check-sat)
(pop)
(pop)
(push)
(assert (not (le x0 java.lang.Boolean)))
(check-sat)
(pop)
(push)
(assert (le x3 weka.core.FastVector))
(check-sat)
(pop)
(push)
(assert (not (le x3 weka.core.FastVector)))
(check-sat)
(pop)
(push)
(assert (le x5 java.lang.StringBuilder))
(check-sat)
(pop)
(push)
(assert (not (le x5 java.lang.StringBuilder)))
(check-sat)
(push)
(assert (le x5 java.lang.StringBuilder))
(check-sat)
(pop)
(push)
(assert (not (le x5 java.lang.StringBuilder)))
(check-sat)
(pop)
(pop)
(push)
(assert (le x2 weka.core.Instances))
(check-sat)
(push)
(assert (le x0 weka.core.Instances))
(check-sat)
(pop)
(push)
(assert (not (le x0 weka.core.Instances)))
(check-sat)
(pop)
(push)
(assert (le x5 java.lang.String))
(check-sat)
(pop)
(push)
(assert (not (le x5 java.lang.String)))
(check-sat)
(pop)
(push)
(assert (le x5 weka.core.Instances))
(check-sat)
(pop)
(push)
(assert (not (le x5 weka.core.Instances)))
(check-sat)
(push)
(assert (le x5 weka.core.Instances))
(check-sat)
(pop)
(push)
(assert (not (le x5 weka.core.Instances)))
(check-sat)
(pop)
(push)
(assert (le x5 weka.core.Instances))
(check-sat)
(pop)
(push)
(assert (not (le x5 weka.core.Instances)))
(check-sat)
(pop)
(pop)
(push)
(assert (le x4 weka.core.SparseInstance))
(check-sat)
(pop)
(push)
(assert (not (le x4 weka.core.SparseInstance)))
(check-sat)
(push)
(assert (le x4 weka.core.Instance))
(check-sat)
(pop)
(pop)
(push)
(assert (le x6 java.lang.StringBuffer))
(check-sat)
(pop)
(push)
(assert (not (le x6 java.lang.StringBuffer)))
(check-sat)
(pop)
(pop)
(push)
(assert (not (le x2 weka.core.Instances)))
(check-sat)
(pop)
(pop)
(push)
(assert (not (le x4 weka.core.Instance)))
(check-sat)
(pop)
(push)
(assert (le x5 weka.core.FastVector))
(check-sat)
(push)
(assert (le x4 java.util.Vector))
(check-sat)
(pop)
(push)
(assert (not (le x4 java.util.Vector)))
(check-sat)
(pop)
(push)
(assert (le x7 java.util.Vector))
(check-sat)
(push)
(assert (le x5 weka.core.FastVector))
(check-sat)
(pop)
(push)
(assert (not (le x5 weka.core.FastVector)))
(check-sat)
(pop)
(pop)
(push)
(assert (not (le x7 java.util.Vector)))
(check-sat)
(push)
(assert (le x4 weka.core.Instances))
(check-sat)
(pop)
(push)
(assert (not (le x4 weka.core.Instances)))
(check-sat)
(push)
(assert (le x2 java.lang.String))
(check-sat)
(pop)
(push)
(assert (not (le x2 java.lang.String)))
(check-sat)
(pop)
(pop)
(pop)
(push)
(assert (le x0 weka.core.Instance))
(check-sat)
(pop)
(push)
(assert (not (le x0 weka.core.Instance)))
(check-sat)
(pop)
(push)
(assert (le x2 weka.core.Instances))
(check-sat)
(pop)
(push)
(assert (not (le x2 weka.core.Instances)))
(check-sat)
(push)
(assert (le x0 weka.core.Instances))
(check-sat)
(pop)
(push)
(assert (not (le x0 weka.core.Instances)))
(check-sat)
(pop)
(pop)
(push)
(assert (le x3 weka.core.FastVector))
(check-sat)
(pop)
(push)
(assert (not (le x3 weka.core.FastVector)))
(check-sat)
(push)
(assert (le x0 java.lang.String))
(check-sat)
(pop)
(push)
(assert (not (le x0 java.lang.String)))
(check-sat)
(pop)
(pop)
(push)
(assert (le x2 java.lang.String))
(check-sat)
(push)
(assert (le x6 java.lang.StringBuffer))
(check-sat)
(pop)
(push)
(assert (not (le x6 java.lang.StringBuffer)))
(check-sat)
(pop)
(push)
(assert (le x6 java.lang.String))
(check-sat)
(pop)
(push)
(assert (not (le x6 java.lang.String)))
(check-sat)
(pop)
(push)
(assert (le x3 weka.core.FastVector))
(check-sat)
(pop)
(push)
(assert (not (le x3 weka.core.FastVector)))
(check-sat)
(pop)
(push)
(assert (le x1 weka.core.Queue))
(check-sat)
(pop)
(push)
(assert (not (le x1 weka.core.Queue)))
(check-sat)
(pop)
(pop)
(push)
(assert (not (le x2 java.lang.String)))
(check-sat)
(push)
(assert (le x6 java.util.Vector))
(check-sat)
(pop)
(push)
(assert (not (le x6 java.util.Vector)))
(check-sat)
(pop)
(pop)
(push)
(assert (le x5 weka.core.FastVector))
(check-sat)
(pop)
(push)
(assert (not (le x5 weka.core.FastVector)))
(check-sat)
(pop)
(pop)
(push)
(assert (not (le x5 weka.core.FastVector)))
(check-sat)
(push)
(assert (le x4 java.lang.Object))
(check-sat)
(pop)
(push)
(assert (not (le x4 java.lang.Object)))
(check-sat)
(pop)
(push)
(assert (le x3 weka.core.FastVector))
(check-sat)
(pop)
(push)
(assert (not (le x3 weka.core.FastVector)))
(check-sat)
(pop)
(pop)
(push)
(assert (le x6 java.lang.String))
(check-sat)
(push)
(assert (le x0 weka.core.Instances))
(check-sat)
(push)
(assert (le x4 java.lang.String))
(check-sat)
(pop)
(push)
(assert (not (le x4 java.lang.String)))
(check-sat)
(pop)
(pop)
(push)
(assert (not (le x0 weka.core.Instances)))
(check-sat)
(pop)
(push)
(assert (le x0 java.util.Vector))
(check-sat)
(pop)
(push)
(assert (not (le x0 java.util.Vector)))
(check-sat)
(pop)
(push)
(assert (le x6 java.lang.String))
(check-sat)
(pop)
(push)
(assert (not (le x6 java.lang.String)))
(check-sat)
(pop)
(push)
(assert (le x1 weka.core.Instance))
(check-sat)
(pop)
(push)
(assert (not (le x1 weka.core.Instance)))
(check-sat)
(pop)
(pop)
(push)
(assert (not (le x6 java.lang.String)))
(check-sat)
(pop)
(push)
(assert (le x2 weka.core.Instance))
(check-sat)
(push)
(assert (le x2 weka.core.SparseInstance))
(check-sat)
(pop)
(push)
(assert (le x2 weka.core.Instance))
(check-sat)
(push)
(assert (not (le x2 weka.core.SparseInstance)))
(check-sat)
(pop)
(pop)
(push)
(assert (le x2 weka.core.SparseInstance))
(check-sat)
(pop)
(push)
(assert (le x2 weka.core.Attribute))
(check-sat)
(pop)
(push)
(assert (le x2 weka.core.Instance))
(check-sat)
(push)
(assert (not (le x2 weka.core.SparseInstance)))
(check-sat)
(pop)
(pop)
(push)
(assert (le x4 java.lang.Boolean))
(check-sat)
(pop)
(push)
(assert (not (le x4 java.lang.Boolean)))
(check-sat)
(pop)
(push)
(assert (le x2 weka.core.Instance))
(check-sat)
(pop)
(push)
(assert (not (le x2 weka.core.Instance)))
(check-sat)
(pop)
(push)
(assert (le x7 java.util.Vector))
(check-sat)
(pop)
(push)
(assert (not (le x7 java.util.Vector)))
(check-sat)
(push)
(assert (le x5 java.lang.Boolean))
(check-sat)
(pop)
(push)
(assert (not (le x5 java.lang.Boolean)))
(check-sat)
(pop)
(pop)
(push)
(assert (le x6 weka.core.Instances))
(check-sat)
(pop)
(push)
(assert (not (le x6 weka.core.Instances)))
(check-sat)
(pop)
(push)
(assert (le x1 weka.core.Instance))
(check-sat)
(push)
(assert (le x1 weka.core.SparseInstance))
(check-sat)
(pop)
(push)
(assert (le x1 weka.core.Instance))
(check-sat)
(push)
(assert (not (le x1 weka.core.SparseInstance)))
(check-sat)
(pop)
(pop)
(push)
(assert (le x5 weka.core.Instance))
(check-sat)
(pop)
(push)
(assert (not (le x5 weka.core.Instance)))
(check-sat)
(pop)
(push)
(assert (le x3 weka.core.FastVector))
(check-sat)
(pop)
(push)
(assert (not (le x3 weka.core.FastVector)))
(check-sat)
(pop)
(pop)
(push)
(assert (not (le x1 weka.core.Instance)))
(check-sat)
(pop)
(pop)
(push)
(assert (not (le x2 weka.core.Instance)))
(check-sat)
(pop)
(push)
(assert (le x0 weka.core.FastVector))
(check-sat)
(push)
(assert (le x1 weka.core.Instances))
(check-sat)
(push)
(assert (le x2 java.lang.String))
(check-sat)
(pop)
(push)
(assert (not (le x2 java.lang.String)))
(check-sat)
(pop)
(push)
(assert (le x1 weka.core.Instances))
(check-sat)
(pop)
(push)
(assert (not (le x1 weka.core.Instances)))
(check-sat)
(pop)
(push)
(assert (le x0 weka.core.FastVector))
(check-sat)
(pop)
(push)
(assert (not (le x0 weka.core.FastVector)))
(check-sat)
(pop)
(push)
(assert (le x0 weka.core.FastVector))
(check-sat)
(push)
(assert (le x3 weka.core.FastVector))
(check-sat)
(pop)
(push)
(assert (not (le x3 weka.core.FastVector)))
(check-sat)
(pop)
(pop)
(push)
(assert (not (le x0 weka.core.FastVector)))
(check-sat)
(pop)
(push)
(assert (le x4 weka.core.Instance))
(check-sat)
(pop)
(push)
(assert (not (le x4 weka.core.Instance)))
(check-sat)
(pop)
(pop)
(push)
(assert (not (le x1 weka.core.Instances)))
(check-sat)
(pop)
(push)
(assert (le x3 weka.core.FastVector))
(check-sat)
(pop)
(push)
(assert (not (le x3 weka.core.FastVector)))
(check-sat)
(pop)
(pop)
(push)
(assert (not (le x0 weka.core.FastVector)))
(check-sat)
(pop)
(push)
(assert (le x2 java.util.Vector))
(check-sat)
(pop)
(push)
(assert (not (le x2 java.util.Vector)))
(check-sat)
(push)
(assert (le x7 weka.core.Instance))
(check-sat)
(push)
(assert (le x3 weka.core.FastVector))
(check-sat)
(pop)
(push)
(assert (not (le x3 weka.core.FastVector)))
(check-sat)
(pop)
(push)
(assert (le x1 weka.core.Instances))
(check-sat)
(pop)
(push)
(assert (not (le x1 weka.core.Instances)))
(check-sat)
(push)
(assert (le x2 java.util.Vector))
(check-sat)
(pop)
(push)
(assert (not (le x2 java.util.Vector)))
(check-sat)
(pop)
(pop)
(push)
(assert (le x5 java.lang.Boolean))
(check-sat)
(pop)
(push)
(assert (not (le x5 java.lang.Boolean)))
(check-sat)
(pop)
(pop)
(push)
(assert (not (le x7 weka.core.Instance)))
(check-sat)
(push)
(assert (le x0 weka.core.Instance))
(check-sat)
(pop)
(push)
(assert (not (le x0 weka.core.Instance)))
(check-sat)
(pop)
(push)
(assert (le x6 weka.core.AttributeLocator))
(check-sat)
(push)
(assert (le x7 weka.core.Instance))
(check-sat)
(pop)
(push)
(assert (not (le x7 weka.core.Instance)))
(check-sat)
(pop)
(pop)
(push)
(assert (not (le x6 weka.core.AttributeLocator)))
(check-sat)
(pop)
(push)
(assert (le x1 weka.classifiers.trees.j48.Distribution))
(check-sat)
(pop)
(push)
(assert (not (le x1 weka.classifiers.trees.j48.Distribution)))
(check-sat)
(pop)
(push)
(assert (le x5 weka.core.Instances))
(check-sat)
(pop)
(push)
(assert (not (le x5 weka.core.Instances)))
(check-sat)
(pop)
(pop)
(push)
(assert (le x4 weka.core.Instances))
(check-sat)
(pop)
(push)
(assert (not (le x4 weka.core.Instances)))
(check-sat)
(push)
(assert (le x4 weka.core.Instances))
(check-sat)
(pop)
(push)
(assert (not (le x4 weka.core.Instances)))
(check-sat)
(pop)
(push)
(assert (le x0 java.lang.String))
(check-sat)
(push)
(assert (le x4 weka.core.Instances))
(check-sat)
(pop)
(push)
(assert (not (le x4 weka.core.Instances)))
(check-sat)
(pop)
(pop)
(push)
(assert (not (le x0 java.lang.String)))
(check-sat)
(pop)
(pop)
(push)
(assert (le x2 java.util.Vector))
(check-sat)
(pop)
(push)
(assert (not (le x2 java.util.Vector)))
(check-sat)
(pop)
(push)
(assert (le x6 weka.core.Attribute))
(check-sat)
(push)
(assert (le x2 java.util.Vector))
(check-sat)
(pop)
(push)
(assert (not (le x2 java.util.Vector)))
(check-sat)
(pop)
(pop)
(push)
(assert (not (le x6 weka.core.Attribute)))
(check-sat)
(pop)
(pop)
(push)
(assert (le x5 weka.core.Instances))
(check-sat)
(push)
(assert (le x1 weka.core.FastVector))
(check-sat)
(push)
(assert (le x6 java.lang.Double))
(check-sat)
(pop)
(push)
(assert (not (le x6 java.lang.Double)))
(check-sat)
(pop)
(pop)
(push)
(assert (not (le x1 weka.core.FastVector)))
(check-sat)
(pop)
(push)
(assert (le x3 weka.core.FastVector))
(check-sat)
(pop)
(push)
(assert (not (le x3 weka.core.FastVector)))
(check-sat)
(pop)
(push)
(assert (le x5 weka.core.Instances))
(check-sat)
(push)
(assert (le x2 weka.core.Instance))
(check-sat)
(push)
(assert (le x7 weka.core.Instances))
(check-sat)
(pop)
(push)
(assert (not (le x7 weka.core.Instances)))
(check-sat)
(pop)
(pop)
(push)
(assert (not (le x2 weka.core.Instance)))
(check-sat)
(pop)
(pop)
(push)
(assert (not (le x5 weka.core.Instances)))
(check-sat)
(pop)
(pop)
(push)
(assert (not (le x5 weka.core.Instances)))
(check-sat)
(push)
(assert (le x0 weka.core.Instances))
(check-sat)
(pop)
(push)
(assert (not (le x0 weka.core.Instances)))
(check-sat)
(pop)
(pop)
(push)
(assert (le x2 java.util.Properties))
(check-sat)
(pop)
(push)
(assert (not (le x2 java.util.Properties)))
(check-sat)
(push)
(assert (le x2 java.util.Properties))
(check-sat)
(pop)
(push)
(assert (not (le x2 java.util.Properties)))
(check-sat)
(pop)
(pop)
(push)
(assert (le x5 java.lang.String))
(check-sat)
(push)
(assert (le x3 weka.core.FastVector))
(check-sat)
(pop)
(push)
(assert (not (le x3 weka.core.FastVector)))
(check-sat)
(push)
(assert (le x0 java.util.Vector))
(check-sat)
(push)
(assert (le x3 weka.core.FastVector))
(check-sat)
(pop)
(push)
(assert (not (le x3 weka.core.FastVector)))
(check-sat)
(pop)
(pop)
(push)
(assert (not (le x0 java.util.Vector)))
(check-sat)
(pop)
(push)
(assert (le x2 weka.core.Instance))
(check-sat)
(pop)
(push)
(assert (not (le x2 weka.core.Instance)))
(check-sat)
(pop)
(pop)
(push)
(assert (le x2 java.util.Vector))
(check-sat)
(pop)
(push)
(assert (not (le x2 java.util.Vector)))
(check-sat)
(push)
(assert (le x5 java.lang.String))
(check-sat)
(pop)
(push)
(assert (not (le x5 java.lang.String)))
(check-sat)
(pop)
(pop)
(pop)
(push)
(assert (not (le x5 java.lang.String)))
(check-sat)
(push)
(assert (le x2 weka.core.Instances))
(check-sat)
(pop)
(push)
(assert (not (le x2 weka.core.Instances)))
(check-sat)
(pop)
(push)
(assert (le x4 weka.core.ProtectedProperties))
(check-sat)
(pop)
(push)
(assert (not (le x4 weka.core.ProtectedProperties)))
(check-sat)
(pop)
(pop)
(pop)
